# UFF force field parameters for MOF_3626

pair_coeff 1 1 0.043997 2.571000  # H
pair_coeff 2 2 0.060014 3.118000  # O
pair_coeff 3 3 0.304777 3.695000  # P
pair_coeff 4 4 0.123962 2.462000  # Zn
