# UFF force field parameters for MOF_5368

pair_coeff 1 1 0.250825 3.732000  # Br
pair_coeff 2 2 0.104924 3.431000  # C
pair_coeff 3 3 0.012996 2.594000  # Fe
pair_coeff 4 4 0.060014 3.118000  # O
