# UFF force field parameters for MOF_7868

pair_coeff 1 1 0.104924 3.431000  # C
pair_coeff 2 2 0.237829 3.028000  # Ca
pair_coeff 3 3 0.043997 2.571000  # H
pair_coeff 4 4 0.060014 3.118000  # O
