# UFF force field parameters for MOF_5463

pair_coeff 1 1 0.504631 4.008000  # Al
pair_coeff 2 2 0.104924 3.431000  # C
pair_coeff 3 3 0.049958 2.997000  # F
pair_coeff 4 4 0.060014 3.118000  # O
