# UFF force field parameters for MOF_4018

pair_coeff 1 1 0.104924 3.431000  # C
pair_coeff 2 2 0.068956 3.261000  # N
pair_coeff 3 3 0.060014 3.118000  # O
pair_coeff 4 4 0.123962 2.462000  # Zn
