# UFF force field parameters for MOF_3030

pair_coeff 1 1 0.104924 3.431000  # C
pair_coeff 2 2 0.049958 2.997000  # F
pair_coeff 3 3 0.043997 2.571000  # H
pair_coeff 4 4 0.068956 3.261000  # N
pair_coeff 5 5 0.401713 3.826000  # Si
pair_coeff 6 6 0.123962 2.462000  # Zn
